10	5
0	5	1	4	2	3	5
1	1	9
2	4	7	8	10	9
3	1	7
4	2	9	10
5	3	6	8	9
6	0
7	1	11
8	1	11
9	1	11
10	1	11
11	0
0	0	0	0	0	0	0
1	9	5	2	1	2	3
2	9	5	3	3	1	5
3	3	5	3	0	0	5
4	5	3	5	3	0	3
5	7	5	0	4	3	0
6	3	2	1	2	4	2
7	5	2	2	4	4	5
8	2	0	3	1	0	0
9	10	0	0	0	0	3
10	3	5	3	4	3	2
11	0	0	0	0	0	0
12	8	8	6	9
